p cnf 200 1110
-101 26 0
-101 99 0
-101 -91 0
-101 -86 0
-101 -2 0
-101 5 0
-101 -89 0
-101 93 0
-101 72 0
-101 22 0
101 -26 -99 91 86 2 -5 89 -93 -72 -22 0
-102 -23 0
-102 -32 0
-102 98 0
-102 70 0
-102 69 0
-102 29 0
-102 25 0
-102 -51 0
-102 80 0
-102 -49 0
102 23 32 -98 -70 -69 -29 -25 51 -80 49 0
-103 -17 0
-103 15 0
-103 39 0
-103 76 0
-103 100 0
-103 -74 0
-103 5 0
-103 80 0
-103 41 0
-103 51 0
103 17 -15 -39 -76 -100 74 -5 -80 -41 -51 0
-104 -19 0
-104 -50 0
-104 30 0
-104 82 0
-104 -9 0
-104 22 0
-104 92 0
-104 8 0
-104 -62 0
-104 97 0
104 19 50 -30 -82 9 -22 -92 -8 62 -97 0
-105 84 0
-105 -100 0
-105 90 0
-105 35 0
-105 33 0
-105 69 0
-105 13 0
-105 -28 0
-105 82 0
-105 -3 0
105 -84 100 -90 -35 -33 -69 -13 28 -82 3 0
-106 30 0
-106 80 0
-106 -70 0
-106 -9 0
-106 -95 0
-106 92 0
-106 91 0
-106 -77 0
-106 69 0
-106 44 0
106 -30 -80 70 9 95 -92 -91 77 -69 -44 0
-107 2 0
-107 -45 0
-107 -66 0
-107 85 0
-107 15 0
-107 -58 0
-107 -69 0
-107 90 0
-107 -83 0
-107 61 0
107 -2 45 66 -85 -15 58 69 -90 83 -61 0
-108 -30 0
-108 1 0
-108 -99 0
-108 95 0
-108 -20 0
-108 17 0
-108 -12 0
-108 -58 0
-108 51 0
-108 59 0
108 30 -1 99 -95 20 -17 12 58 -51 -59 0
-109 19 0
-109 -100 0
-109 -16 0
-109 78 0
-109 -55 0
-109 12 0
-109 14 0
-109 -20 0
-109 -36 0
-109 26 0
109 -19 100 16 -78 55 -12 -14 20 36 -26 0
-110 20 0
-110 52 0
-110 7 0
-110 -77 0
-110 80 0
-110 -32 0
-110 28 0
-110 -92 0
-110 64 0
-110 58 0
110 -20 -52 -7 77 -80 32 -28 92 -64 -58 0
101 102 103 104 105 106 107 108 109 110 0
-111 -79 0
-111 21 0
-111 -44 0
-111 -39 0
-111 91 0
-111 -2 0
-111 84 0
-111 58 0
-111 36 0
-111 -52 0
111 79 -21 44 39 -91 2 -84 -58 -36 52 0
-112 94 0
-112 -34 0
-112 -79 0
-112 93 0
-112 78 0
-112 73 0
-112 -53 0
-112 -9 0
-112 87 0
-112 -7 0
112 -94 34 79 -93 -78 -73 53 9 -87 7 0
-113 51 0
-113 75 0
-113 93 0
-113 8 0
-113 -96 0
-113 99 0
-113 33 0
-113 -17 0
-113 -84 0
-113 -7 0
113 -51 -75 -93 -8 96 -99 -33 17 84 7 0
-114 54 0
-114 29 0
-114 14 0
-114 52 0
-114 -68 0
-114 -33 0
-114 30 0
-114 32 0
-114 53 0
-114 -73 0
114 -54 -29 -14 -52 68 33 -30 -32 -53 73 0
-115 -22 0
-115 -51 0
-115 -88 0
-115 -39 0
-115 -100 0
-115 48 0
-115 67 0
-115 -73 0
-115 -30 0
-115 10 0
115 22 51 88 39 100 -48 -67 73 30 -10 0
-116 -30 0
-116 -13 0
-116 -70 0
-116 -97 0
-116 24 0
-116 -34 0
-116 -58 0
-116 -25 0
-116 95 0
-116 81 0
116 30 13 70 97 -24 34 58 25 -95 -81 0
-117 21 0
-117 99 0
-117 76 0
-117 -10 0
-117 -1 0
-117 -92 0
-117 22 0
-117 42 0
-117 55 0
-117 -51 0
117 -21 -99 -76 10 1 92 -22 -42 -55 51 0
-118 37 0
-118 -97 0
-118 22 0
-118 4 0
-118 -73 0
-118 -75 0
-118 41 0
-118 20 0
-118 58 0
-118 32 0
118 -37 97 -22 -4 73 75 -41 -20 -58 -32 0
-119 43 0
-119 -97 0
-119 -99 0
-119 66 0
-119 -75 0
-119 -9 0
-119 -1 0
-119 -87 0
-119 -4 0
-119 -20 0
119 -43 97 99 -66 75 9 1 87 4 20 0
-120 39 0
-120 77 0
-120 -43 0
-120 20 0
-120 -25 0
-120 51 0
-120 -69 0
-120 26 0
-120 18 0
-120 -87 0
120 -39 -77 43 -20 25 -51 69 -26 -18 87 0
111 112 113 114 115 116 117 118 119 120 0
-121 -8 0
-121 22 0
-121 50 0
-121 -12 0
-121 -100 0
-121 -57 0
-121 -72 0
-121 73 0
-121 62 0
-121 -97 0
121 8 -22 -50 12 100 57 72 -73 -62 97 0
-122 69 0
-122 44 0
-122 20 0
-122 -87 0
-122 -64 0
-122 -13 0
-122 -51 0
-122 6 0
-122 -92 0
-122 -39 0
122 -69 -44 -20 87 64 13 51 -6 92 39 0
-123 -83 0
-123 41 0
-123 -3 0
-123 -47 0
-123 -93 0
-123 72 0
-123 60 0
-123 22 0
-123 6 0
-123 -78 0
123 83 -41 3 47 93 -72 -60 -22 -6 78 0
-124 -10 0
-124 -76 0
-124 74 0
-124 -66 0
-124 -9 0
-124 -89 0
-124 87 0
-124 -56 0
-124 86 0
-124 -53 0
124 10 76 -74 66 9 89 -87 56 -86 53 0
-125 42 0
-125 -54 0
-125 47 0
-125 -89 0
-125 -6 0
-125 -85 0
-125 34 0
-125 41 0
-125 14 0
-125 10 0
125 -42 54 -47 89 6 85 -34 -41 -14 -10 0
-126 13 0
-126 93 0
-126 61 0
-126 -87 0
-126 36 0
-126 91 0
-126 97 0
-126 82 0
-126 16 0
-126 89 0
126 -13 -93 -61 87 -36 -91 -97 -82 -16 -89 0
-127 70 0
-127 50 0
-127 -4 0
-127 24 0
-127 -29 0
-127 -31 0
-127 59 0
-127 -93 0
-127 63 0
-127 -32 0
127 -70 -50 4 -24 29 31 -59 93 -63 32 0
-128 -22 0
-128 -48 0
-128 -74 0
-128 33 0
-128 -41 0
-128 49 0
-128 -21 0
-128 8 0
-128 -11 0
-128 54 0
128 22 48 74 -33 41 -49 21 -8 11 -54 0
-129 -73 0
-129 36 0
-129 48 0
-129 -80 0
-129 71 0
-129 -39 0
-129 92 0
-129 34 0
-129 37 0
-129 57 0
129 73 -36 -48 80 -71 39 -92 -34 -37 -57 0
-130 11 0
-130 -7 0
-130 -90 0
-130 40 0
-130 36 0
-130 73 0
-130 13 0
-130 -18 0
-130 35 0
-130 50 0
130 -11 7 90 -40 -36 -73 -13 18 -35 -50 0
121 122 123 124 125 126 127 128 129 130 0
-131 -20 0
-131 -67 0
-131 -41 0
-131 69 0
-131 56 0
-131 60 0
-131 46 0
-131 -50 0
-131 -54 0
-131 79 0
131 20 67 41 -69 -56 -60 -46 50 54 -79 0
-132 24 0
-132 78 0
-132 -92 0
-132 -89 0
-132 -52 0
-132 91 0
-132 32 0
-132 7 0
-132 -86 0
-132 23 0
132 -24 -78 92 89 52 -91 -32 -7 86 -23 0
-133 74 0
-133 55 0
-133 -85 0
-133 -76 0
-133 61 0
-133 50 0
-133 -48 0
-133 38 0
-133 -75 0
-133 -24 0
133 -74 -55 85 76 -61 -50 48 -38 75 24 0
-134 25 0
-134 -93 0
-134 11 0
-134 41 0
-134 63 0
-134 82 0
-134 20 0
-134 53 0
-134 -17 0
-134 -37 0
134 -25 93 -11 -41 -63 -82 -20 -53 17 37 0
-135 56 0
-135 29 0
-135 79 0
-135 89 0
-135 27 0
-135 -94 0
-135 -42 0
-135 -4 0
-135 75 0
-135 -34 0
135 -56 -29 -79 -89 -27 94 42 4 -75 34 0
-136 -12 0
-136 -82 0
-136 96 0
-136 2 0
-136 59 0
-136 -75 0
-136 -11 0
-136 -68 0
-136 -88 0
-136 -23 0
136 12 82 -96 -2 -59 75 11 68 88 23 0
-137 13 0
-137 8 0
-137 -54 0
-137 95 0
-137 -26 0
-137 37 0
-137 78 0
-137 50 0
-137 -11 0
-137 -15 0
137 -13 -8 54 -95 26 -37 -78 -50 11 15 0
-138 62 0
-138 -43 0
-138 -98 0
-138 52 0
-138 96 0
-138 -23 0
-138 -7 0
-138 -8 0
-138 58 0
-138 -81 0
138 -62 43 98 -52 -96 23 7 8 -58 81 0
-139 -55 0
-139 82 0
-139 1 0
-139 -8 0
-139 -78 0
-139 -67 0
-139 -43 0
-139 -65 0
-139 70 0
-139 16 0
139 55 -82 -1 8 78 67 43 65 -70 -16 0
-140 95 0
-140 91 0
-140 99 0
-140 -9 0
-140 33 0
-140 8 0
-140 -42 0
-140 -30 0
-140 41 0
-140 -22 0
140 -95 -91 -99 9 -33 -8 42 30 -41 22 0
131 132 133 134 135 136 137 138 139 140 0
-141 -66 0
-141 91 0
-141 -40 0
-141 71 0
-141 -48 0
-141 -56 0
-141 82 0
-141 -1 0
-141 92 0
-141 36 0
141 66 -91 40 -71 48 56 -82 1 -92 -36 0
-142 -92 0
-142 -98 0
-142 -36 0
-142 5 0
-142 -25 0
-142 96 0
-142 -64 0
-142 -14 0
-142 2 0
-142 -90 0
142 92 98 36 -5 25 -96 64 14 -2 90 0
-143 -78 0
-143 51 0
-143 -41 0
-143 4 0
-143 45 0
-143 -75 0
-143 -71 0
-143 63 0
-143 72 0
-143 21 0
143 78 -51 41 -4 -45 75 71 -63 -72 -21 0
-144 -79 0
-144 -8 0
-144 -1 0
-144 -13 0
-144 -93 0
-144 -54 0
-144 -92 0
-144 -65 0
-144 -58 0
-144 -74 0
144 79 8 1 13 93 54 92 65 58 74 0
-145 -31 0
-145 -27 0
-145 -81 0
-145 40 0
-145 -1 0
-145 -39 0
-145 -29 0
-145 -53 0
-145 14 0
-145 -59 0
145 31 27 81 -40 1 39 29 53 -14 59 0
-146 -67 0
-146 -8 0
-146 34 0
-146 -76 0
-146 70 0
-146 -75 0
-146 31 0
-146 -48 0
-146 30 0
-146 81 0
146 67 8 -34 76 -70 75 -31 48 -30 -81 0
-147 -41 0
-147 -48 0
-147 83 0
-147 51 0
-147 -97 0
-147 -92 0
-147 58 0
-147 -61 0
-147 77 0
-147 68 0
147 41 48 -83 -51 97 92 -58 61 -77 -68 0
-148 84 0
-148 -19 0
-148 79 0
-148 -39 0
-148 76 0
-148 -58 0
-148 71 0
-148 -31 0
-148 -7 0
-148 -61 0
148 -84 19 -79 39 -76 58 -71 31 7 61 0
-149 32 0
-149 -5 0
-149 -7 0
-149 -31 0
-149 79 0
-149 -88 0
-149 -22 0
-149 1 0
-149 -65 0
-149 67 0
149 -32 5 7 31 -79 88 22 -1 65 -67 0
-150 65 0
-150 62 0
-150 67 0
-150 84 0
-150 19 0
-150 85 0
-150 29 0
-150 -73 0
-150 33 0
-150 -63 0
150 -65 -62 -67 -84 -19 -85 -29 73 -33 63 0
141 142 143 144 145 146 147 148 149 150 0
-151 4 0
-151 5 0
-151 -31 0
-151 -70 0
-151 27 0
-151 -56 0
-151 57 0
-151 51 0
-151 -74 0
-151 93 0
151 -4 -5 31 70 -27 56 -57 -51 74 -93 0
-152 -10 0
-152 26 0
-152 -40 0
-152 -48 0
-152 72 0
-152 -31 0
-152 -80 0
-152 -94 0
-152 44 0
-152 -68 0
152 10 -26 40 48 -72 31 80 94 -44 68 0
-153 -88 0
-153 7 0
-153 -96 0
-153 -27 0
-153 45 0
-153 53 0
-153 63 0
-153 -50 0
-153 91 0
-153 16 0
153 88 -7 96 27 -45 -53 -63 50 -91 -16 0
-154 -26 0
-154 17 0
-154 35 0
-154 95 0
-154 58 0
-154 32 0
-154 94 0
-154 -62 0
-154 74 0
-154 -11 0
154 26 -17 -35 -95 -58 -32 -94 62 -74 11 0
-155 -65 0
-155 -87 0
-155 76 0
-155 75 0
-155 -88 0
-155 -7 0
-155 -37 0
-155 79 0
-155 -21 0
-155 -48 0
155 65 87 -76 -75 88 7 37 -79 21 48 0
-156 94 0
-156 -62 0
-156 68 0
-156 73 0
-156 15 0
-156 -17 0
-156 26 0
-156 19 0
-156 -76 0
-156 -83 0
156 -94 62 -68 -73 -15 17 -26 -19 76 83 0
-157 44 0
-157 -60 0
-157 8 0
-157 -30 0
-157 -10 0
-157 40 0
-157 80 0
-157 -97 0
-157 -66 0
-157 41 0
157 -44 60 -8 30 10 -40 -80 97 66 -41 0
-158 -31 0
-158 -10 0
-158 -56 0
-158 32 0
-158 -16 0
-158 -79 0
-158 -98 0
-158 7 0
-158 -4 0
-158 -59 0
158 31 10 56 -32 16 79 98 -7 4 59 0
-159 87 0
-159 -67 0
-159 64 0
-159 -71 0
-159 17 0
-159 -57 0
-159 93 0
-159 6 0
-159 -80 0
-159 38 0
159 -87 67 -64 71 -17 57 -93 -6 80 -38 0
-160 -28 0
-160 -59 0
-160 -70 0
-160 21 0
-160 -33 0
-160 56 0
-160 78 0
-160 -1 0
-160 -65 0
-160 82 0
160 28 59 70 -21 33 -56 -78 1 65 -82 0
151 152 153 154 155 156 157 158 159 160 0
-161 -6 0
-161 8 0
-161 -22 0
-161 42 0
-161 84 0
-161 98 0
-161 -4 0
-161 19 0
-161 71 0
-161 -94 0
161 6 -8 22 -42 -84 -98 4 -19 -71 94 0
-162 6 0
-162 35 0
-162 -26 0
-162 -39 0
-162 65 0
-162 64 0
-162 32 0
-162 34 0
-162 62 0
-162 82 0
162 -6 -35 26 39 -65 -64 -32 -34 -62 -82 0
-163 -4 0
-163 -84 0
-163 94 0
-163 -30 0
-163 21 0
-163 91 0
-163 -95 0
-163 -46 0
-163 -29 0
-163 68 0
163 4 84 -94 30 -21 -91 95 46 29 -68 0
-164 11 0
-164 61 0
-164 67 0
-164 -44 0
-164 -48 0
-164 13 0
-164 78 0
-164 93 0
-164 -53 0
-164 82 0
164 -11 -61 -67 44 48 -13 -78 -93 53 -82 0
-165 86 0
-165 4 0
-165 81 0
-165 -67 0
-165 -64 0
-165 -30 0
-165 60 0
-165 41 0
-165 -87 0
-165 -52 0
165 -86 -4 -81 67 64 30 -60 -41 87 52 0
-166 -63 0
-166 -37 0
-166 31 0
-166 45 0
-166 -76 0
-166 66 0
-166 -98 0
-166 56 0
-166 -73 0
-166 62 0
166 63 37 -31 -45 76 -66 98 -56 73 -62 0
-167 -75 0
-167 -4 0
-167 -51 0
-167 -80 0
-167 -1 0
-167 -62 0
-167 5 0
-167 52 0
-167 2 0
-167 63 0
167 75 4 51 80 1 62 -5 -52 -2 -63 0
-168 -68 0
-168 -100 0
-168 21 0
-168 32 0
-168 50 0
-168 -23 0
-168 -30 0
-168 35 0
-168 -81 0
-168 9 0
168 68 100 -21 -32 -50 23 30 -35 81 -9 0
-169 -91 0
-169 -16 0
-169 -87 0
-169 32 0
-169 70 0
-169 23 0
-169 49 0
-169 -94 0
-169 52 0
-169 43 0
169 91 16 87 -32 -70 -23 -49 94 -52 -43 0
-170 -69 0
-170 -82 0
-170 -77 0
-170 86 0
-170 2 0
-170 -50 0
-170 63 0
-170 65 0
-170 28 0
-170 55 0
170 69 82 77 -86 -2 50 -63 -65 -28 -55 0
161 162 163 164 165 166 167 168 169 170 0
-171 99 0
-171 52 0
-171 -84 0
-171 14 0
-171 61 0
-171 68 0
-171 94 0
-171 -6 0
-171 -15 0
-171 45 0
171 -99 -52 84 -14 -61 -68 -94 6 15 -45 0
-172 -52 0
-172 87 0
-172 11 0
-172 -40 0
-172 50 0
-172 -13 0
-172 -25 0
-172 -59 0
-172 -92 0
-172 68 0
172 52 -87 -11 40 -50 13 25 59 92 -68 0
-173 -66 0
-173 75 0
-173 58 0
-173 -2 0
-173 83 0
-173 45 0
-173 87 0
-173 5 0
-173 -24 0
-173 -39 0
173 66 -75 -58 2 -83 -45 -87 -5 24 39 0
-174 -7 0
-174 -24 0
-174 -3 0
-174 6 0
-174 -39 0
-174 -97 0
-174 -95 0
-174 19 0
-174 53 0
-174 37 0
174 7 24 3 -6 39 97 95 -19 -53 -37 0
-175 52 0
-175 -72 0
-175 -22 0
-175 -9 0
-175 -44 0
-175 -26 0
-175 -90 0
-175 -57 0
-175 -24 0
-175 -42 0
175 -52 72 22 9 44 26 90 57 24 42 0
-176 -60 0
-176 -4 0
-176 90 0
-176 49 0
-176 41 0
-176 73 0
-176 63 0
-176 -78 0
-176 47 0
-176 70 0
176 60 4 -90 -49 -41 -73 -63 78 -47 -70 0
-177 -11 0
-177 72 0
-177 83 0
-177 4 0
-177 70 0
-177 2 0
-177 -96 0
-177 -7 0
-177 95 0
-177 56 0
177 11 -72 -83 -4 -70 -2 96 7 -95 -56 0
-178 24 0
-178 -68 0
-178 -97 0
-178 -49 0
-178 84 0
-178 3 0
-178 -25 0
-178 69 0
-178 -21 0
-178 1 0
178 -24 68 97 49 -84 -3 25 -69 21 -1 0
-179 -65 0
-179 -26 0
-179 -95 0
-179 80 0
-179 -84 0
-179 -33 0
-179 -70 0
-179 56 0
-179 -53 0
-179 99 0
179 65 26 95 -80 84 33 70 -56 53 -99 0
-180 53 0
-180 -49 0
-180 22 0
-180 66 0
-180 -13 0
-180 35 0
-180 87 0
-180 99 0
-180 97 0
-180 29 0
180 -53 49 -22 -66 13 -35 -87 -99 -97 -29 0
171 172 173 174 175 176 177 178 179 180 0
-181 -19 0
-181 15 0
-181 -32 0
-181 100 0
-181 -72 0
-181 -31 0
-181 12 0
-181 89 0
-181 80 0
-181 -27 0
181 19 -15 32 -100 72 31 -12 -89 -80 27 0
-182 67 0
-182 42 0
-182 28 0
-182 39 0
-182 45 0
-182 47 0
-182 81 0
-182 -90 0
-182 77 0
-182 -3 0
182 -67 -42 -28 -39 -45 -47 -81 90 -77 3 0
-183 67 0
-183 -24 0
-183 -59 0
-183 44 0
-183 -87 0
-183 56 0
-183 -83 0
-183 82 0
-183 -46 0
-183 53 0
183 -67 24 59 -44 87 -56 83 -82 46 -53 0
-184 -69 0
-184 61 0
-184 -18 0
-184 -30 0
-184 -77 0
-184 17 0
-184 62 0
-184 -59 0
-184 -70 0
-184 19 0
184 69 -61 18 30 77 -17 -62 59 70 -19 0
-185 72 0
-185 -51 0
-185 -28 0
-185 3 0
-185 -24 0
-185 22 0
-185 -59 0
-185 21 0
-185 8 0
-185 26 0
185 -72 51 28 -3 24 -22 59 -21 -8 -26 0
-186 -83 0
-186 -82 0
-186 15 0
-186 99 0
-186 88 0
-186 62 0
-186 7 0
-186 -61 0
-186 49 0
-186 -37 0
186 83 82 -15 -99 -88 -62 -7 61 -49 37 0
-187 85 0
-187 14 0
-187 -63 0
-187 20 0
-187 66 0
-187 -50 0
-187 -80 0
-187 -38 0
-187 -73 0
-187 -81 0
187 -85 -14 63 -20 -66 50 80 38 73 81 0
-188 -90 0
-188 -41 0
-188 -5 0
-188 -81 0
-188 -51 0
-188 47 0
-188 -33 0
-188 46 0
-188 -68 0
-188 -52 0
188 90 41 5 81 51 -47 33 -46 68 52 0
-189 32 0
-189 23 0
-189 -87 0
-189 84 0
-189 48 0
-189 60 0
-189 83 0
-189 71 0
-189 -76 0
-189 55 0
189 -32 -23 87 -84 -48 -60 -83 -71 76 -55 0
-190 -89 0
-190 -59 0
-190 72 0
-190 73 0
-190 90 0
-190 -98 0
-190 -34 0
-190 84 0
-190 -86 0
-190 30 0
190 89 59 -72 -73 -90 98 34 -84 86 -30 0
181 182 183 184 185 186 187 188 189 190 0
-191 -22 0
-191 -42 0
-191 -94 0
-191 79 0
-191 10 0
-191 80 0
-191 -98 0
-191 74 0
-191 100 0
-191 -61 0
191 22 42 94 -79 -10 -80 98 -74 -100 61 0
-192 -34 0
-192 -59 0
-192 73 0
-192 -45 0
-192 85 0
-192 -19 0
-192 -98 0
-192 47 0
-192 16 0
-192 -66 0
192 34 59 -73 45 -85 19 98 -47 -16 66 0
-193 -79 0
-193 7 0
-193 -69 0
-193 97 0
-193 -42 0
-193 -47 0
-193 -63 0
-193 -43 0
-193 83 0
-193 77 0
193 79 -7 69 -97 42 47 63 43 -83 -77 0
-194 90 0
-194 -37 0
-194 -23 0
-194 41 0
-194 97 0
-194 64 0
-194 -66 0
-194 44 0
-194 17 0
-194 11 0
194 -90 37 23 -41 -97 -64 66 -44 -17 -11 0
-195 86 0
-195 45 0
-195 -48 0
-195 91 0
-195 31 0
-195 -23 0
-195 -16 0
-195 81 0
-195 63 0
-195 94 0
195 -86 -45 48 -91 -31 23 16 -81 -63 -94 0
-196 -16 0
-196 72 0
-196 -30 0
-196 54 0
-196 32 0
-196 -98 0
-196 64 0
-196 -60 0
-196 -74 0
-196 -53 0
196 16 -72 30 -54 -32 98 -64 60 74 53 0
-197 -7 0
-197 66 0
-197 -37 0
-197 88 0
-197 84 0
-197 53 0
-197 26 0
-197 -44 0
-197 -10 0
-197 -17 0
197 7 -66 37 -88 -84 -53 -26 44 10 17 0
-198 50 0
-198 21 0
-198 -81 0
-198 -74 0
-198 37 0
-198 -96 0
-198 -94 0
-198 63 0
-198 95 0
-198 68 0
198 -50 -21 81 74 -37 96 94 -63 -95 -68 0
-199 -13 0
-199 -35 0
-199 62 0
-199 7 0
-199 28 0
-199 -82 0
-199 25 0
-199 51 0
-199 15 0
-199 -2 0
199 13 35 -62 -7 -28 82 -25 -51 -15 2 0
-200 -24 0
-200 -39 0
-200 4 0
-200 -88 0
-200 -54 0
-200 13 0
-200 42 0
-200 -90 0
-200 57 0
-200 76 0
200 24 39 -4 88 54 -13 -42 90 -57 -76 0
191 192 193 194 195 196 197 198 199 200 0
